12
-1 91 41 80 36 7 73 99 96 20 55 24
90 -1 6 27 24 7 14 71 39 95 21 45
67 35 -1 95 64 39 45 91 51 60 24 48
86 18 73 -1 48 86 97 86 24 21 45 69
36 16 26 35 -1 12 80 53 45 96 19 97
93 16 92 34 70 -1 54 48 26 11 63 12
9 78 62 26 36 69 -1 77 68 40 75 32
57 2 73 61 95 85 56 -1 8 16 94 70
81 56 56 7 64 3 77 9 -1 32 45 39
9 98 52 50 4 32 32 15 20 -1 10 81
30 24 55 61 38 46 18 26 1 57 -1 98
49 5 51 51 77 13 55 98 5 82 49 -1